
===== New CPLEX run =====
Instance: /home/yorig/tuner/mpils-tests/instances/miplib/easy/lotsize.mps
Config: /scratch/yorig/mpils-results-grid-seconds-5-no-mip-start/easy/16proc/seed-3/4_lotsize_seed-3_20260502_223218/expansion/config_param_CPXPARAM_Preprocessing_CoeffReduce_0_iter_3.prm
========================

Selected objective sense:  MINIMIZE
Selected objective  name:  R1921
Selected RHS        name:  B
Selected bound      name:  BOUND
Version identifier: 22.1.2.0 | 2024-11-26 | 0edbb82fd
CPXPARAM_Threads                                 8
CPXPARAM_Parallel                                1
CPXPARAM_MIP_Cuts_Cliques                        2
CPXPARAM_Preprocessing_CoeffReduce               0
CPXPARAM_MIP_Cuts_FlowCovers                     2
CPXPARAM_MIP_Cuts_Implied                        1
CPXPARAM_MIP_Limits_GomoryCand                   800
CPXPARAM_MIP_Cuts_Gomory                         -1
CPXPARAM_MIP_Cuts_PathCut                        1
CPXPARAM_MIP_Cuts_MIRCut                         2
CPXPARAM_MIP_Cuts_Disjunctive                    2
CPXPARAM_Emphasis_MIP                            1
CPXPARAM_MIP_Strategy_BBInterval                 4
CPXPARAM_TimeLimit                               5
Tried aggregator 1 time.
MIP Presolve eliminated 590 rows and 0 columns.
MIP Presolve added 1190 rows and 0 columns.
Reduced MIP has 2520 rows, 2985 columns, and 7765 nonzeros.
Reduced MIP has 1195 binaries, 0 generals, 0 SOSs, and 0 indicators.
Presolve time = 0.00 sec. (4.28 ticks)
Probing fixed 0 vars, tightened 5146 bounds.
Probing time = 0.01 sec. (18.21 ticks)
Tried aggregator 2 times.
Detecting symmetries...
MIP Presolve eliminated 5 rows and 0 columns.
MIP Presolve modified 616 coefficients.
Aggregator did 10 substitutions.
Reduced MIP has 2505 rows, 2975 columns, and 7735 nonzeros.
Reduced MIP has 1195 binaries, 0 generals, 0 SOSs, and 0 indicators.
Presolve time = 0.01 sec. (8.48 ticks)
Probing fixed 0 vars, tightened 2342 bounds.
Probing time = 0.00 sec. (6.42 ticks)
Clique table members: 190.
MIP emphasis: integer feasibility.
MIP search method: dynamic search.
Parallel mode: deterministic, using up to 8 threads.
Root relaxation solution time = 0.01 sec. (9.68 ticks)

        Nodes                                         Cuts/
   Node  Left     Objective  IInf  Best Integer    Best Bound    ItCnt     Gap

      0     0   348385.3466   473                 348385.3466      882         
      0     0   580914.5402   431                   Cuts: 726     1814         
      0     0   818528.3498   697                   Cuts: 726     2655         
*     0+    0                       1.00206e+07   818528.3498            91.83%
*     0+    0                      7923948.0000   818528.3498            89.67%
      0     0   938987.7335   697  7923948.0000     Cuts: 726     3328   88.15%
Detecting symmetries...
      0     2   938987.7335   697  7923948.0000   938987.7335     3328   88.15%
Elapsed time = 0.37 sec. (565.59 ticks, tree = 0.02 MB, solutions = 2)
    498   428  1068881.2416   503  7923948.0000   939338.7667     9888   88.15%
   1301  1109  1159490.7300   363  7923948.0000   939338.7667    18654   88.15%

Performing restart 1

Repeating presolve.
Tried aggregator 1 time.
MIP Presolve modified 594 coefficients.
Reduced MIP has 2505 rows, 2975 columns, and 7735 nonzeros.
Reduced MIP has 1195 binaries, 0 generals, 0 SOSs, and 0 indicators.
Presolve time = 0.00 sec. (5.64 ticks)
Tried aggregator 1 time.
MIP Presolve modified 486 coefficients.
Reduced MIP has 2505 rows, 2975 columns, and 7735 nonzeros.
Reduced MIP has 1195 binaries, 0 generals, 0 SOSs, and 0 indicators.
Presolve time = 0.00 sec. (6.96 ticks)
Represolve time = 0.02 sec. (22.40 ticks)
   1696     0  1072639.7033   692  7923948.0000     Cuts: 726    31804   86.46%
   1696     0  1156961.2408   684  7923948.0000     Cuts: 726    32554   85.40%
   1696     0  1227383.1079   714  7923948.0000     Cuts: 726    33208   84.51%
   1696     2  1227383.1079   714  7923948.0000  1227383.1079    33208   84.51%
   1723    29  1252968.6944   637  7923948.0000  1227434.6805    34069   84.51%
   1739    45  1262617.5238   589  7923948.0000  1227434.6805    34640   84.51%
   1759     7  1235086.7016   672  7923948.0000  1227434.6805    33398   84.51%
   1768    72  1359217.4608   605  7923948.0000  1228478.5347    39056   84.50%
   1781    74  1307826.9455   761  7923948.0000  1229537.3014    41400   84.48%
   1818    88  1313246.8617   755  7923948.0000  1229587.9261    52299   84.48%
   2134   294  1409979.6474   582  7923948.0000  1235911.2427    84507   84.40%
Elapsed time = 3.68 sec. (5246.65 ticks, tree = 0.32 MB, solutions = 2)
   2675   854  1614869.4715   131  7923948.0000  1235911.2427   126828   84.40%
*  2930+  877                      3771516.0000  1235911.2427            67.23%
*  2937+  877                      2986078.0000  1235911.2427            58.61%
*  2940+  877                      2926309.0000  1235911.2427            57.77%
*  2963+ 1033                      1734341.0000  1235911.2427            28.74%
*  2975+ 1026                      1707775.0000  1235911.2427            27.63%
*  2980+ 1026                      1707725.0000  1235911.2427            27.63%
*  3117+ 1135                      1684188.0000  1235911.2427            26.62%
*  3118+ 1135                      1681763.0000  1235911.2427            26.51%
*  3307+ 1224                      1677574.0000  1235911.2427            26.33%

Clique cuts applied:  1
Cover cuts applied:  25
Implied bound cuts applied:  13
Flow cuts applied:  843
Mixed integer rounding cuts applied:  1036
Flow path cuts applied:  74
Multi commodity flow cuts applied:  19
Lift and project cuts applied:  16
Disjunctive cuts applied:  0
Cone linearizations applied:  0

Root node processing (before b&c):
  Real time             =    0.37 sec. (563.41 ticks)
Parallel b&c, 8 threads:
  Real time             =    4.64 sec. (6546.32 ticks)
  Sync time (average)   =    0.35 sec.
  Wait time (average)   =    0.00 sec.
                          ------------
Total (root+branch&cut) =    5.01 sec. (7109.72 ticks)
Gap: 26.33%
Upper bound: 1.67757e+06
Lower bound: 1.23591e+06
End of CPLEX run. Time: 5.00731 seconds

===== New CPLEX run =====
Instance: /home/yorig/tuner/mpils-tests/instances/miplib/easy/lotsize.mps
Config: /scratch/yorig/mpils-results-grid-seconds-5-no-mip-start/easy/16proc/seed-3/4_lotsize_seed-3_20260502_223218/expansion/config_param_CPXPARAM_Preprocessing_CoeffReduce_1_iter_3.prm
========================

Selected objective sense:  MINIMIZE
Selected objective  name:  R1921
Selected RHS        name:  B
Selected bound      name:  BOUND
Version identifier: 22.1.2.0 | 2024-11-26 | 0edbb82fd
CPXPARAM_Threads                                 8
CPXPARAM_Parallel                                1
CPXPARAM_MIP_Cuts_Cliques                        2
CPXPARAM_Preprocessing_CoeffReduce               1
CPXPARAM_MIP_Cuts_FlowCovers                     2
CPXPARAM_MIP_Cuts_Implied                        1
CPXPARAM_MIP_Limits_GomoryCand                   800
CPXPARAM_MIP_Cuts_Gomory                         -1
CPXPARAM_MIP_Cuts_PathCut                        1
CPXPARAM_MIP_Cuts_MIRCut                         2
CPXPARAM_MIP_Cuts_Disjunctive                    2
CPXPARAM_Emphasis_MIP                            1
CPXPARAM_MIP_Strategy_BBInterval                 4
CPXPARAM_TimeLimit                               5
Tried aggregator 1 time.
MIP Presolve eliminated 590 rows and 0 columns.
MIP Presolve added 1190 rows and 0 columns.
Reduced MIP has 2520 rows, 2985 columns, and 7765 nonzeros.
Reduced MIP has 1195 binaries, 0 generals, 0 SOSs, and 0 indicators.
Presolve time = 0.00 sec. (4.51 ticks)
Probing fixed 0 vars, tightened 5146 bounds.
Probing time = 0.01 sec. (18.21 ticks)
Tried aggregator 2 times.
Detecting symmetries...
MIP Presolve eliminated 5 rows and 0 columns.
MIP Presolve modified 664 coefficients.
Aggregator did 10 substitutions.
Reduced MIP has 2505 rows, 2975 columns, and 7735 nonzeros.
Reduced MIP has 1195 binaries, 0 generals, 0 SOSs, and 0 indicators.
Presolve time = 0.01 sec. (8.05 ticks)
Probing fixed 0 vars, tightened 2342 bounds.
Probing time = 0.00 sec. (6.42 ticks)
Clique table members: 190.
MIP emphasis: integer feasibility.
MIP search method: dynamic search.
Parallel mode: deterministic, using up to 8 threads.
Root relaxation solution time = 0.01 sec. (9.71 ticks)

        Nodes                                         Cuts/
   Node  Left     Objective  IInf  Best Integer    Best Bound    ItCnt     Gap

      0     0   348385.3466   472                 348385.3466      882         
      0     0   582698.3033   433                   Cuts: 726     1815         
      0     0   815790.5002   695                   Cuts: 726     2662         
*     0+    0                       1.00206e+07   815790.5002            91.86%
*     0+    0                      7923948.0000   815790.5002            89.70%
      0     0   946421.4415   700  7923948.0000     Cuts: 726     3367   88.06%
Detecting symmetries...
      0     2   946421.4415   700  7923948.0000   946421.4415     3367   88.06%
Elapsed time = 0.37 sec. (559.76 ticks, tree = 0.02 MB, solutions = 2)
    550   475  1111033.0714   501  7923948.0000   947827.3735     9236   88.04%
    990   822  1035284.0790   635  7923948.0000   947827.3735    20293   88.04%
   1730  1483  1039298.5144   600  7923948.0000   947827.3735    35214   88.04%

Performing restart 1

Repeating presolve.
Tried aggregator 1 time.
MIP Presolve modified 631 coefficients.
Reduced MIP has 2505 rows, 2975 columns, and 7735 nonzeros.
Reduced MIP has 1195 binaries, 0 generals, 0 SOSs, and 0 indicators.
Presolve time = 0.00 sec. (5.28 ticks)
Tried aggregator 1 time.
MIP Presolve modified 513 coefficients.
Reduced MIP has 2505 rows, 2975 columns, and 7735 nonzeros.
Reduced MIP has 1195 binaries, 0 generals, 0 SOSs, and 0 indicators.
Presolve time = 0.00 sec. (6.52 ticks)
Represolve time = 0.02 sec. (21.40 ticks)
   1749     0  1122375.2974   697  7923948.0000     Cuts: 726    42134   85.84%
   1749     0  1215423.0520   725  7923948.0000     Cuts: 726    42980   84.66%
   1749     0  1264449.2474   734  7923948.0000     Cuts: 726    43759   84.04%
   1749     2  1264449.2474   734  7923948.0000  1264449.2474    43759   84.04%
   1768    21  1277178.7301   649  7923948.0000  1264481.5701    44340   84.04%
   1786    39  1285134.4152   631  7923948.0000  1264481.5701    45167   84.04%
   1802    55  1295483.7137   594  7923948.0000  1264481.5701    45663   84.04%
   1814    64  1363801.8189   669  7923948.0000  1265325.5392    47016   84.03%
   1823    69  1343385.6160   784  7923948.0000  1265370.3656    49048   84.03%
   1890   115  1417210.0682   600  7923948.0000  1271964.4425    84374   83.95%
Elapsed time = 3.88 sec. (5427.78 ticks, tree = 0.13 MB, solutions = 2)
   2228   377  1398134.6878   591  7923948.0000  1271964.4425   109317   83.95%
*  2455+  461                      1623246.0000  1271964.4425            21.64%
*  2528+  627                      1616122.0000  1271964.4425            21.30%
*  2615+  693                      1609193.0000  1271964.4425            20.96%
*  2721+  731                      1602413.0000  1271964.4425            20.62%
*  2726+  731                      1600665.0000  1271964.4425            20.54%

Clique cuts applied:  1
Cover cuts applied:  24
Implied bound cuts applied:  15
Flow cuts applied:  847
Mixed integer rounding cuts applied:  1070
Flow path cuts applied:  62
Multi commodity flow cuts applied:  24
Lift and project cuts applied:  24
Disjunctive cuts applied:  0
Cone linearizations applied:  0

Root node processing (before b&c):
  Real time             =    0.36 sec. (557.69 ticks)
Parallel b&c, 8 threads:
  Real time             =    4.64 sec. (6710.50 ticks)
  Sync time (average)   =    0.30 sec.
  Wait time (average)   =    0.00 sec.
                          ------------
Total (root+branch&cut) =    5.00 sec. (7268.19 ticks)
Gap: 20.54%
Upper bound: 1.60066e+06
Lower bound: 1.27196e+06
End of CPLEX run. Time: 5.00541 seconds
